<number of tasks>
45

<cycle time>
62

<task times>
1 9
2 9
3 10
4 10
5 17
6 17
7 13
8 13
9 20
10 20
11 10
12 11
13 6
14 22
15 11
16 19
17 12
18 3
19 7
20 4
21 55
22 14
23 27
24 29
25 26
26 6
27 5
28 24
29 4
30 5
31 7
32 4
33 15
34 3
35 7
36 9
37 4
38 7
39 5
40 4
41 21
42 12
43 6
44 5
45 5

<task process alternatives>
1: 8,15 ; 11,8
2: 8,15 ; 11,8
3: 8,15 ; 12,8
4: 8,15 ; 12,8
5: 14,15 ; 21,8
6: 14,15 ; 21,8
7: 11,15 ; 16,8
8: 11,15 ; 16,8
9: 16,15 ; 24,8
10: 16,15 ; 24,8
11: 8,15 ; 12,8
12: 9,15 ; 14,8
13: 5,15 ; 8,8
14: 18,15 ; 27,8
15: 9,15 ; 14,8
16: 16,15 ; 23,8
17: 10,15 ; 15,8
18: 3,15 ; 4,8
19: 6,15 ; 9,8
20: 4,15 ; 5,8
21: 44,15 ; 66,8
22: 12,15 ; 17,8
23: 22,15 ; 33,8
24: 24,15 ; 35,8
25: 21,15 ; 32,8
26: 5,15 ; 8,8
27: 4,15 ; 6,8
28: 20,15 ; 29,8
29: 4,15 ; 5,8
30: 4,15 ; 6,8
31: 6,15 ; 9,8
32: 4,15 ; 5,8
33: 12,15 ; 18,8
34: 3,15 ; 4,8
35: 6,15 ; 9,8
36: 8,15 ; 11,8
37: 4,15 ; 5,8
38: 6,15 ; 9,8
39: 4,15 ; 6,8
40: 4,15 ; 5,8
41: 17,15 ; 26,8
42: 10,15 ; 15,8
43: 5,15 ; 8,8
44: 4,15 ; 6,8
45: 4,15 ; 6,8

<incompatible tasks>
28,19
32,36
34,32
19,10
3,23
13,29

<precedence relations>
33,36
15,24
24,33
42,45
4,6
12,13
21,22
14,25
29,41
12,37
40,41
14,31
1,3
27,28
31,41
2,8
17,27
13,14
19,33
16,19
33,35
15,23
9,41
41,42
18,19
42,44
26,38
5,9
38,40
39,41
22,28
23,33
2,4
8,14
14,30
17,26
11,13
19,20
27,33
28,38
7,9
15,16
6,10
30,41
33,34
10,41
3,5
20,21
32,41
35,40
14,17
8,10
14,32
14,29
34,38
1,7
36,38
37,43
13,15
15,18
25,26
7,14

<linked tasks>
1,15
2,37
3,39
4,43
5,16
5,37
9,29
12,15
13,39
18,29
20,29
35,38
38,45

<optimal SALBP-1 value>
9

<rand seed>
236278236

<end>
